5
25
91
40	24
1	5	5	6	6	5	23	3	11	3	23	2	
2	3	5	4	4	6	12	6	
3	3	8	2	7	4	11	3	
4	2	14	4	6	3	
5	5	7	12	6	4	12	2	6	5	14	3	
6	2	9	4	4	3	
7	1	7	3	
8	1	5	3	
9	4	7	4	7	3	7	3	7	8	
10	5	11	3	5	3	13	4	13	2	5	9	
11	5	22	3	6	3	16	4	15	2	7	3	
12	3	4	7	7	5	18	2	
13	5	17	3	5	10	5	12	24	2	6	9	
14	2	5	10	11	3	
15	5	8	6	12	6	8	4	6	11	8	2	
16	4	4	11	6	5	4	3	11	5	
17	3	5	4	21	3	4	5	
18	5	8	2	7	5	5	5	9	4	23	3	
19	3	7	3	5	3	6	3	
20	4	19	3	9	2	4	3	5	8	
21	3	7	3	9	5	8	2	
22	4	22	4	8	6	7	10	5	5	
23	5	9	2	7	7	9	6	5	10	10	3	
24	5	7	9	6	7	11	3	12	3	9	3	
25	4	5	6	5	6	6	4	7	7	
